
  19    0


   0  10 2 3 5 6 13 14 15 16 17 18 
   8   4 12 10 9 4 
   8   3 11 10 8 
  10   2 8 7 
   1   1 9 
  10   1 7 
   8   1 19
   4   1 19
   2   1 19
   1   1 19
   7   1 19
   8   1 19
   6   1 19
   2   1 19
   4   1 19
   2   1 19
   2   1 19
   1   1 19
   0   0 
